# Objective value = 6933.86000000002
I_0_0 676
I_0_1 743.000000000007
I_0_2 8.3200000000000512e+02
I_0_3 8.3899999999999557e+02
I_0_4 7.3100000000000955e+02
I_0_5 7.2399999999999784e+02
I_0_6 1.0379999999999989e+03
I_1_0 53
I_1_1 5.2999999999999510e+01
I_1_2 4.9463905194002677e-13
I_1_3 52.9999999999995
I_1_4 53
I_1_5 53
I_1_6 0
I_2_0 67
I_2_1 2.2287588441471939e-12
I_2_2 6.6999999999997911e+01
I_2_3 -8.4465767713481910e-13
I_2_4 67
I_2_5 67
I_2_6 0
I_3_0 91
I_3_1 91
I_3_2 91
I_3_3 91
I_3_4 91
I_3_5 9.0999999999999986e+01
I_3_6 0
I_4_0 55
I_4_1 5.4999999999997669e+01
I_4_2 2.3332377696583251e-12
I_4_3 5.4999999999997826e+01
I_4_4 -2.1742607714259066e-12
I_4_5 5.5000000000002188e+01
I_4_6 -2.1910792820834557e-12
I_5_0 96
I_5_1 9.5999999999993577e+01
I_5_2 4.7999999999994095e+01
I_5_3 7.9261042174039176e-12
I_5_4 95.9999999999926
I_5_5 4.7999999999999993e+01
I_5_6 3.4092728640189307e-12
q_1_0_0 5.2999999999999510e+01
q_1_0_1 9.84913539614496e-13
q_1_0_2 105.999999999999
q_1_0_3 53.0000000000005
q_1_0_4 53
q_1_0_5 0
q_1_1_0 0
q_1_1_1 0
q_1_1_2 0
q_1_1_3 0
q_1_1_4 0
q_1_1_5 0
q_1_2_0 0
q_1_2_1 0
q_1_2_2 0
q_1_2_3 0
q_1_2_4 0
q_1_2_5 0
q_2_0_0 2.2287588441471939e-12
q_2_0_1 1.3399999999999341e+02
q_2_0_2 0
q_2_0_3 0
q_2_0_4 67
q_2_0_5 0
q_2_1_0 0
q_2_1_1 2.2893908990795353e-12
q_2_1_2 1.2452261444195756e-12
q_2_1_3 1.3400000000000085e+02
q_2_1_4 0
q_2_1_5 0
q_2_2_0 0
q_2_2_1 0
q_2_2_2 0
q_2_2_3 0
q_2_2_4 0
q_2_2_5 0
q_3_0_0 5.4164867036021747e-12
q_3_0_1 1.9418338464971541e-12
q_3_0_2 8.2867046558021684e-13
q_3_0_3 9.0999999999999147e+01
q_3_0_4 0
q_3_0_5 0
q_3_1_0 9.0999999999994586e+01
q_3_1_1 9.0999999999998067e+01
q_3_1_2 9.0999999999999176e+01
q_3_1_3 0
q_3_1_4 9.0999999999999986e+01
q_3_1_5 0
q_3_2_0 0
q_3_2_1 0
q_3_2_2 0
q_3_2_3 8.5975671026972122e-13
q_3_2_4 0
q_3_2_5 0
q_4_0_0 5.4999999999997669e+01
q_4_0_1 4.6684808796548793e-12
q_4_0_2 0
q_4_0_3 0
q_4_0_4 0
q_4_0_5 0
q_4_1_0 0
q_4_1_1 0
q_4_1_2 -4.35767351970959e-12
q_4_1_3 0
q_4_1_4 0
q_4_1_5 0
q_4_2_0 0
q_4_2_1 0
q_4_2_2 1.0999999999999986e+02
q_4_2_3 0
q_4_2_4 1.1000000000000438e+02
q_4_2_5 -4.3795509082245643e-12
q_5_0_0 4.7999999999993591e+01
q_5_0_1 5.0981441290787188e-13
q_5_0_2 0
q_5_0_3 2.0143886558798840e-12
q_5_0_4 7.3954176116330927e-12
q_5_0_5 3.4141578453272814e-12
q_5_1_0 0
q_5_1_1 0
q_5_1_2 0
q_5_1_3 -1.7799095530790510e-12
q_5_1_4 0
q_5_1_5 0
q_5_2_0 0
q_5_2_1 0
q_5_2_2 1.3832490708409750e-11
q_5_2_3 1.4399999999998445e+02
q_5_2_4 0
q_5_2_5 0
y_0_0_0 1
y_0_0_1 1
y_0_0_2 1
y_0_0_3 1
y_0_0_4 1
y_0_0_5 3.5509789553245241e-14
y_0_1_0 9.9999999999994049e-01
y_0_1_1 9.9999999999999578e-01
y_0_1_2 1
y_0_1_3 1
y_0_1_4 1
y_0_1_5 0
y_0_2_0 0
y_0_2_1 0
y_0_2_2 1
y_0_2_3 9.9999999999990130e-01
y_0_2_4 1.0000000000000397e+00
y_0_2_5 0
y_1_0_0 9.9999999999999079e-01
y_1_0_1 9.3328123007552222e-15
y_1_0_2 9.9999999999999067e-01
y_1_0_3 1
y_1_0_4 1
y_1_0_5 0
y_1_1_0 0
y_1_1_1 0
y_1_1_2 0
y_1_1_3 0
y_1_1_4 0
y_1_1_5 0
y_1_2_0 0
y_1_2_1 0
y_1_2_2 0
y_1_2_3 0
y_1_2_4 0
y_1_2_5 0
y_2_0_0 3.3265057375331253e-14
y_2_0_1 9.9999999999994960e-01
y_2_0_2 0
y_2_0_3 0
y_2_0_4 1
y_2_0_5 0
y_2_1_0 0
y_2_1_1 1.7085291514895573e-14
y_2_1_2 9.2911789373317788e-15
y_2_1_3 1
y_2_1_4 0
y_2_1_5 0
y_2_2_0 0
y_2_2_1 0
y_2_2_2 0
y_2_2_3 0
y_2_2_4 0
y_2_2_5 0
y_3_0_0 5.95218319077162e-14
y_3_0_1 2.1338833477990704e-14
y_3_0_2 9.2426066800044282e-15
y_3_0_3 9.9999999999999067e-01
y_3_0_4 0
y_3_0_5 0
y_3_1_0 9.9999999999994049e-01
y_3_1_1 9.9999999999997868e-01
y_3_1_2 9.9999999999999079e-01
y_3_1_3 0
y_3_1_4 1
y_3_1_5 0
y_3_2_0 0
y_3_2_1 0
y_3_2_2 0
y_3_2_3 9.3536289824669439e-15
y_3_2_4 0
y_3_2_5 0
y_4_0_0 9.9999999999995759e-01
y_4_0_1 4.2385257630062068e-14
y_4_0_2 0
y_4_0_3 0
y_4_0_4 0
y_4_0_5 0
y_4_1_0 0
y_4_1_1 0
y_4_1_2 -3.9615213815541717e-14
y_4_1_3 0
y_4_1_4 0
y_4_1_5 0
y_4_2_0 0
y_4_2_1 0
y_4_2_2 1
y_4_2_3 0
y_4_2_4 1.0000000000000397e+00
y_4_2_5 -3.9814099165677858e-14
y_5_0_0 9.9999999999986644e-01
y_5_0_1 1.2587153541687712e-14
y_5_0_2 0
y_5_0_3 1.3974932322469158e-14
y_5_0_4 7.1113254174193230e-14
y_5_0_5 3.5509789553245241e-14
y_5_1_0 0
y_5_1_1 0
y_5_1_2 0
y_5_1_3 -1.2358170042858774e-14
y_5_1_4 0
y_5_1_5 0
y_5_2_0 0
y_5_2_1 0
y_5_2_2 1.3561374245796287e-13
y_5_2_3 0.999999999999892
y_5_2_4 0
y_5_2_5 0
x_0_1_0_0 9.9999999999995748e-01
x_0_1_0_1 2.6423307986078726e-14
x_0_1_0_2 1.9999999999999816e+00
x_0_1_0_3 9.9999999999999534e-01
x_0_1_0_4 0.999999999999929
x_0_1_0_5 0
x_0_1_1_0 0
x_0_1_1_1 0
x_0_1_1_2 0
x_0_1_1_3 0
x_0_1_1_4 0
x_0_1_1_5 0
x_0_1_2_0 0
x_0_1_2_1 0
x_0_1_2_2 0
x_0_1_2_3 0
x_0_1_2_4 0
x_0_1_2_5 0
x_0_2_0_0 3.3268526822283206e-14
x_0_2_0_1 1.9999999999998646e+00
x_0_2_0_2 0
x_0_2_0_3 0
x_0_2_0_4 1
x_0_2_0_5 0
x_0_2_1_0 0
x_0_2_1_1 3.4170583029791146e-14
x_0_2_1_2 1.8582357874663558e-14
x_0_2_1_3 2.0000000000000124e+00
x_0_2_1_4 0
x_0_2_1_5 0
x_0_2_2_0 0
x_0_2_2_1 0
x_0_2_2_2 0
x_0_2_2_3 0
x_0_2_2_4 0
x_0_2_2_5 0
x_0_3_0_0 6.8667294073065932e-14
x_0_3_0_1 4.2677666955981408e-14
x_0_3_0_2 1.8485213360008856e-14
x_0_3_0_3 9.9999999999998590e-01
x_0_3_0_4 0
x_0_3_0_5 0
x_0_3_1_0 1.9999999999998810e+00
x_0_3_1_1 1.9999999999999574e+00
x_0_3_1_2 1.9999999999999816e+00
x_0_3_1_3 0
x_0_3_1_4 2
x_0_3_1_5 0
x_0_3_2_0 0
x_0_3_2_1 0
x_0_3_2_2 0
x_0_3_2_3 1.8707257964933888e-14
x_0_3_2_4 0
x_0_3_2_5 0
x_0_4_0_0 7.4197592514479993e-14
x_0_4_0_1 4.2385257630062068e-14
x_0_4_0_2 0
x_0_4_0_3 0
x_0_4_0_4 0
x_0_4_0_5 0
x_0_4_1_0 0
x_0_4_1_1 0
x_0_4_1_2 0
x_0_4_1_3 0
x_0_4_1_4 0
x_0_4_1_5 0
x_0_4_2_0 0
x_0_4_2_1 0
x_0_4_2_2 1.9999999999998643e+00
x_0_4_2_3 0
x_0_4_2_4 2.0000000000000795e+00
x_0_4_2_5 0
x_0_5_0_0 9.9999999999986644e-01
x_0_5_0_1 2.5174307083375425e-14
x_0_5_0_2 0
x_0_5_0_3 1.8637869025894815e-14
x_0_5_0_4 7.1113254174193230e-14
x_0_5_0_5 7.1019579106490482e-14
x_0_5_1_0 0
x_0_5_1_1 0
x_0_5_1_2 0
x_0_5_1_3 -1.2309597785531423e-14
x_0_5_1_4 0
x_0_5_1_5 0
x_0_5_2_0 0
x_0_5_2_1 0
x_0_5_2_2 1.3572476476042539e-13
x_0_5_2_3 1.9999999999997840e+00
x_0_5_2_4 0
x_0_5_2_5 0
x_1_2_0_0 3.32615879283793e-14
x_1_2_0_1 -7.7507444906643741e-15
x_1_2_0_2 0
x_1_2_0_3 0
x_1_2_0_4 1
x_1_2_0_5 0
x_1_2_1_0 0
x_1_2_1_1 0
x_1_2_1_2 0
x_1_2_1_3 0
x_1_2_1_4 0
x_1_2_1_5 0
x_1_2_2_0 0
x_1_2_2_1 0
x_1_2_2_2 0
x_1_2_2_3 0
x_1_2_2_4 0
x_1_2_2_5 0
x_1_3_0_0 3.32615879283793e-14
x_1_3_0_1 0
x_1_3_0_2 0
x_1_3_0_3 9.9999999999999534e-01
x_1_3_0_4 0
x_1_3_0_5 0
x_1_3_1_0 0
x_1_3_1_1 0
x_1_3_1_2 0
x_1_3_1_3 0
x_1_3_1_4 0
x_1_3_1_5 0
x_1_3_2_0 0
x_1_3_2_1 0
x_1_3_2_2 0
x_1_3_2_3 0
x_1_3_2_4 0
x_1_3_2_5 0
x_1_4_0_0 9.9999999999995748e-01
x_1_4_0_1 0
x_1_4_0_2 0
x_1_4_0_3 0
x_1_4_0_4 0
x_1_4_0_5 0
x_1_4_1_0 0
x_1_4_1_1 0
x_1_4_1_2 0
x_1_4_1_3 0
x_1_4_1_4 0
x_1_4_1_5 0
x_1_4_2_0 0
x_1_4_2_1 0
x_1_4_2_2 0
x_1_4_2_3 0
x_1_4_2_4 0
x_1_4_2_5 0
x_1_5_0_0 0
x_1_5_0_1 0
x_1_5_0_2 0
x_1_5_0_3 9.3258734068513149e-15
x_1_5_0_4 7.1075090257721740e-14
x_1_5_0_5 0
x_1_5_1_0 0
x_1_5_1_1 0
x_1_5_1_2 0
x_1_5_1_3 0
x_1_5_1_4 0
x_1_5_1_5 0
x_1_5_2_0 0
x_1_5_2_1 0
x_1_5_2_2 0
x_1_5_2_3 0
x_1_5_2_4 0
x_1_5_2_5 0
x_2_3_0_0 0
x_2_3_0_1 0
x_2_3_0_2 0
x_2_3_0_3 0
x_2_3_0_4 0
x_2_3_0_5 0
x_2_3_1_0 0
x_2_3_1_1 0
x_2_3_1_2 0
x_2_3_1_3 0
x_2_3_1_4 0
x_2_3_1_5 0
x_2_3_2_0 0
x_2_3_2_1 0
x_2_3_2_2 0
x_2_3_2_3 0
x_2_3_2_4 0
x_2_3_2_5 0
x_2_4_0_0 0
x_2_4_0_1 4.2385257630062068e-14
x_2_4_0_2 0
x_2_4_0_3 0
x_2_4_0_4 0
x_2_4_0_5 0
x_2_4_1_0 0
x_2_4_1_1 0
x_2_4_1_2 0
x_2_4_1_3 0
x_2_4_1_4 0
x_2_4_1_5 0
x_2_4_2_0 0
x_2_4_2_1 0
x_2_4_2_2 0
x_2_4_2_3 0
x_2_4_2_4 0
x_2_4_2_5 0
x_2_5_0_0 0
x_2_5_0_1 0
x_2_5_0_2 0
x_2_5_0_3 0
x_2_5_0_4 0
x_2_5_0_5 0
x_2_5_1_0 0
x_2_5_1_1 0
x_2_5_1_2 0
x_2_5_1_3 -1.2309597785531423e-14
x_2_5_1_4 0
x_2_5_1_5 0
x_2_5_2_0 0
x_2_5_2_1 0
x_2_5_2_2 0
x_2_5_2_3 0
x_2_5_2_4 0
x_2_5_2_5 0
x_3_4_0_0 1.7086158876633561e-14
x_3_4_0_1 0
x_3_4_0_2 0
x_3_4_0_3 0
x_3_4_0_4 0
x_3_4_0_5 0
x_3_4_1_0 0
x_3_4_1_1 0
x_3_4_1_2 0
x_3_4_1_3 0
x_3_4_1_4 0
x_3_4_1_5 0
x_3_4_2_0 0
x_3_4_2_1 0
x_3_4_2_2 0
x_3_4_2_3 0
x_3_4_2_4 0
x_3_4_2_5 0
x_3_5_0_0 0
x_3_5_0_1 0
x_3_5_0_2 0
x_3_5_0_3 0
x_3_5_0_4 0
x_3_5_0_5 0
x_3_5_1_0 0
x_3_5_1_1 0
x_3_5_1_2 0
x_3_5_1_3 0
x_3_5_1_4 0
x_3_5_1_5 0
x_3_5_2_0 0
x_3_5_2_1 0
x_3_5_2_2 0
x_3_5_2_3 0
x_3_5_2_4 0
x_3_5_2_5 0
x_4_5_0_0 9.9999999999986644e-01
x_4_5_0_1 0
x_4_5_0_2 0
x_4_5_0_3 0
x_4_5_0_4 0
x_4_5_0_5 0
x_4_5_1_0 0
x_4_5_1_1 0
x_4_5_1_2 0
x_4_5_1_3 0
x_4_5_1_4 0
x_4_5_1_5 0
x_4_5_2_0 0
x_4_5_2_1 0
x_4_5_2_2 1.3561374245796287e-13
x_4_5_2_3 0
x_4_5_2_4 0
x_4_5_2_5 0
